RT is False
Default write of storage_offers_DA.csv just to have a file (but constraint should be inactive)
Reading model...
...model read.
creating competitive generators file...
...competitive generators recorded.
Loading data...
.. day-ahead data with real-time VRE data read.
Compiling instance...
...instance created.
Creating Offer Mitigation (model will solve as dispatch if TRUE)...
NOTE: storage offers will not be mitigated
...storage offer mitigation file created
Converting model to MPEC...
...converted
NOTE: initial MIP solve with only storage competitive to get feasible solution
Solving...

Welcome to IBM(R) ILOG(R) CPLEX(R) Interactive Optimizer 12.8.0.0
  with Simplex, Mixed Integer & Barrier Optimizers
5725-A06 5725-A29 5724-Y48 5724-Y49 5724-Y54 5724-Y55 5655-Y21
Copyright IBM Corp. 1988, 2017.  All Rights Reserved.

Type 'help' for a list of available commands.
Type 'help' followed by a command name for more
information on commands.

CPLEX> Logfile 'cplex.log' closed.
Logfile 'C:\Users\llavi\Desktop\test919\logs\tmpt78um5hk.cplex.log' open.
CPLEX> New value for parallel optimization mode: -1
CPLEX> New value for mixed integer optimality gap tolerance: 0.01
CPLEX> New value for integrality tolerance: 1e-09
CPLEX> New value for feasibility tolerance: 0.01
CPLEX> New value for deterministic time limit in ticks: 75000
CPLEX> Problem 'C:\Users\llavi\Desktop\test919\logs\tmpu9a7cc_9.pyomo.lp' read.
Read time = 0.25 sec. (13.50 ticks)
CPLEX> Problem name         : C:\Users\llavi\Desktop\test919\logs\tmpu9a7cc_9.pyomo.lp
Objective sense      : Maximize
Variables            :   54021  [Nneg: 1,  Box: 22008,  Free: 4464,
                                 Binary: 27548]
Objective nonzeros   :    8973
Linear constraints   :  123829  [Less: 41554,  Greater: 59512,  Equal: 22763]
  Nonzeros           :  300586
  RHS nonzeros       :   67894

Variables            : Min LB: -5000.000        Max UB: 1000000.       
Objective nonzeros   : Min   : 0.05833333       Max   : 833.8667       
Linear constraints   :
  Nonzeros           : Min   : 0.001000000      Max   : 1000000.       
  RHS nonzeros       : Min   : 0.05833333       Max   : 1000000.       
CPLEX> CPXPARAM_Simplex_Tolerances_Feasibility          0.01
CPXPARAM_Parallel                                -1
CPXPARAM_DetTimeLimit                            75000
CPXPARAM_MIP_Tolerances_MIPGap                   0.01
CPXPARAM_MIP_Tolerances_Integrality              1.0000000000000001e-09
Tried aggregator 3 times.
MIP Presolve eliminated 89299 rows and 19187 columns.
MIP Presolve added 3394 rows and 0 columns.
MIP Presolve modified 23871 coefficients.
Aggregator did 13078 substitutions.
Reduced MIP has 24846 rows, 21196 columns, and 70948 nonzeros.
Reduced MIP has 8396 binaries, 0 generals, 0 SOSs, and 0 indicators.
Presolve time = 0.25 sec. (167.33 ticks)
Probing fixed 409 vars, tightened 2848 bounds.
Probing time = 3.38 sec. (885.75 ticks)
Tried aggregator 2 times.
MIP Presolve eliminated 927 rows and 825 columns.
MIP Presolve modified 2183 coefficients.
Aggregator did 39 substitutions.
Reduced MIP has 23880 rows, 20332 columns, and 68147 nonzeros.
Reduced MIP has 7984 binaries, 0 generals, 0 SOSs, and 0 indicators.
Presolve time = 0.17 sec. (55.93 ticks)
Probing time = 0.06 sec. (15.26 ticks)
Clique table members: 6305.
MIP emphasis: balance optimality and feasibility.
MIP search method: dynamic search.
Parallel mode: opportunistic, using up to 4 threads.
Root relaxation solution time = 0.47 sec. (388.03 ticks)

        Nodes                                         Cuts/
   Node  Left     Objective  IInf  Best Integer    Best Bound    ItCnt     Gap

      0     0     1868.3853   644                   1868.3853     2572         
*     0+    0                         1868.3853     1868.3853             0.00%
      0     0        cutoff           1868.3853     1868.3853     2572    0.00%
Elapsed time = 7.45 sec. (2681.60 ticks, tree = 0.01 MB, solutions = 1)

Root node processing (before b&c):
  Real time             =    7.47 sec. (2683.87 ticks)
Parallel b&c, 4 threads:
  Real time             =    0.00 sec. (0.00 ticks)
  Sync time (average)   =    0.00 sec.
  Wait time (average)   =    0.00 sec.
                          ------------
Total (root+branch&cut) =    7.47 sec. (2683.87 ticks)

Solution pool: 1 solution saved.

MIP - Integer optimal solution:  Objective =  1.8683852936e+03
Solution time =    7.48 sec.  Iterations = 2572  Nodes = 0
Deterministic time = 2684.03 ticks  (358.64 ticks/sec)

CPLEX> Incumbent solution written to file 'C:\Users\llavi\Desktop\test919\logs\tmp31vv6l_1.cplex.sol'.
CPLEX> NOTE: no warmstart specified for MIP iteration, default behavior is true
NOTE: resolving with all competitive generators using storage-only solution to warmstart
Solving...

Welcome to IBM(R) ILOG(R) CPLEX(R) Interactive Optimizer 12.8.0.0
  with Simplex, Mixed Integer & Barrier Optimizers
5725-A06 5725-A29 5724-Y48 5724-Y49 5724-Y54 5724-Y55 5655-Y21
Copyright IBM Corp. 1988, 2017.  All Rights Reserved.

Type 'help' for a list of available commands.
Type 'help' followed by a command name for more
information on commands.

CPLEX> Logfile 'cplex.log' closed.
Logfile 'C:\Users\llavi\Desktop\test919\logs\tmpxskgtlj9.cplex.log' open.
CPLEX> New value for parallel optimization mode: -1
CPLEX> New value for mixed integer optimality gap tolerance: 0.01
CPLEX> New value for integrality tolerance: 1e-09
CPLEX> New value for feasibility tolerance: 0.01
CPLEX> New value for deterministic time limit in ticks: 75000
CPLEX> Problem 'C:\Users\llavi\Desktop\test919\logs\tmpyf5v2e9p.pyomo.lp' read.
Read time = 0.27 sec. (13.52 ticks)
CPLEX> MIP start file 'C:\Users\llavi\Desktop\test919\logs\tmpi2pbz0bz.cplex.mst' read.
CPLEX> Problem name         : C:\Users\llavi\Desktop\test919\logs\tmpyf5v2e9p.pyomo.lp
Objective sense      : Maximize
Variables            :   54741  [Nneg: 1,  Box: 22728,  Free: 4464,
                                 Binary: 27548]
Objective nonzeros   :    9693
Linear constraints   :  123829  [Less: 41554,  Greater: 59512,  Equal: 22763]
  Nonzeros           :  300586
  RHS nonzeros       :   67894

Variables            : Min LB: -5000.000        Max UB: 1000000.       
Objective nonzeros   : Min   : 0.05833333       Max   : 833.8667       
Linear constraints   :
  Nonzeros           : Min   : 0.001000000      Max   : 1000000.       
  RHS nonzeros       : Min   : 0.05833333       Max   : 1000000.       
CPLEX> CPXPARAM_Simplex_Tolerances_Feasibility          0.01
CPXPARAM_Parallel                                -1
CPXPARAM_DetTimeLimit                            75000
CPXPARAM_MIP_Tolerances_MIPGap                   0.01
CPXPARAM_MIP_Tolerances_Integrality              1.0000000000000001e-09
1 of 1 MIP starts provided solutions.
MIP start 'm1' defined initial solution with objective 1868.3853.
Tried aggregator 3 times.
MIP Presolve eliminated 89299 rows and 19907 columns.
MIP Presolve added 3394 rows and 0 columns.
MIP Presolve modified 23871 coefficients.
Aggregator did 13078 substitutions.
Reduced MIP has 24846 rows, 21196 columns, and 70948 nonzeros.
Reduced MIP has 8396 binaries, 0 generals, 0 SOSs, and 0 indicators.
Presolve time = 0.28 sec. (167.69 ticks)
Probing fixed 409 vars, tightened 2848 bounds.
Probing time = 3.16 sec. (885.75 ticks)
Tried aggregator 2 times.
MIP Presolve eliminated 927 rows and 825 columns.
MIP Presolve modified 2183 coefficients.
Aggregator did 39 substitutions.
Reduced MIP has 23880 rows, 20332 columns, and 68147 nonzeros.
Reduced MIP has 7984 binaries, 0 generals, 0 SOSs, and 0 indicators.
Presolve time = 0.14 sec. (55.93 ticks)
Probing time = 0.06 sec. (16.00 ticks)
Clique table members: 6305.
MIP emphasis: balance optimality and feasibility.
MIP search method: dynamic search.
Parallel mode: opportunistic, using up to 4 threads.
Root relaxation solution time = 0.22 sec. (147.14 ticks)

        Nodes                                         Cuts/
   Node  Left     Objective  IInf  Best Integer    Best Bound    ItCnt     Gap

*     0+    0                         1868.3853   4.53999e+07              --- 
      0     0        cutoff           1868.3853                   2467     --- 

Root node processing (before b&c):
  Real time             =   10.09 sec. (3612.78 ticks)
Parallel b&c, 4 threads:
  Real time             =    0.00 sec. (0.00 ticks)
  Sync time (average)   =    0.00 sec.
  Wait time (average)   =    0.00 sec.
                          ------------
Total (root+branch&cut) =   10.09 sec. (3612.78 ticks)

Solution pool: 1 solution saved.

MIP - Integer optimal solution:  Objective =  1.8683852936e+03
Solution time =   10.09 sec.  Iterations = 2467  Nodes = 0
Deterministic time = 3612.94 ticks  (357.93 ticks/sec)

CPLEX> Incumbent solution written to file 'C:\Users\llavi\Desktop\test919\logs\tmpnelfwd62.cplex.sol'.
CPLEX> Exporting results... 
